301 302 508 507 506 505 504 503 502 498 501 500 499 452 453 440 441 450 451 316 314 315 374 375 376 377 378 379 380 381 390 389 388 387 386 382 385 383 384 409 408 407 406 405 404 400 399 398 397 391 392 393 394 395 396 371 372 373 322 323 324 296 295 294 293 270 268 267 271 269 272 273 274 275 292 291 290 289 288 276 277 278 279 282 281 280 287 286 285 284 283 334 335 336 337 338 339 333 332 331 330 340 341 344 343 342 366 329 328 325 326 327 370 369 368 367 365 364 345 346 362 363 361 347 348 349 350 351 352 353 354 355 357 358 359 360 401 403 402 356 412 411 410 418 417 413 414 415 416 419 420 421 422 423 424 425 426 427 428 429 431 430 432 433 434 435 437 438 436 443 444 445 446 447 448 449 442 439 454 455 456 457 458 459 460 461 462 463 464 465 466 467 468 571 572 573 0 1 2 3 4 5 6 7 8 9 10 11 14 15 16 17 18 19 20 568 569 570 474 473 472 471 469 470 496 497 519 518 495 494 524 523 522 521 520 517 516 515 514 513 509 510 511 512 527 526 525 493 492 491 490 528 529 530 531 532 533 231 230 229 228 227 189 225 226 190 191 192 193 194 195 196 197 184 183 185 186 188 187 178 177 176 540 538 539 537 536 535 487 534 488 489 486 485 484 483 482 481 480 479 478 477 476 475 567 566 565 564 548 549 563 562 560 561 29 28 27 26 25 24 21 13 12 23 22 31 30 32 33 34 35 36 37 38 39 42 41 40 557 558 559 550 551 101 100 102 96 95 94 97 98 99 552 553 554 556 555 46 45 44 43 47 48 49 54 53 55 56 83 82 57 58 81 59 60 61 63 62 79 80 87 86 85 84 51 52 50 91 92 93 90 89 88 78 77 76 64 75 74 73 119 118 120 121 122 123 71 72 65 66 67 68 70 69 124 125 126 127 128 129 137 138 139 140 141 136 135 134 133 132 130 131 113 161 112 114 115 116 117 106 105 104 103 547 546 545 544 543 541 542 107 110 111 109 108 173 174 175 172 170 171 169 180 179 182 181 166 167 164 163 168 162 160 155 156 159 157 158 145 144 143 142 151 150 149 152 148 147 146 153 154 165 203 204 202 201 200 199 198 205 206 207 208 209 210 211 212 213 214 215 216 217 223 224 222 221 220 218 219 232 233 234 235 236 237 240 239 238 246 247 245 244 243 242 241 248 249 250 251 252 254 253 255 256 257 300 299 258 259 260 261 262 263 264 265 266 298 297 321 320 319 317 318 306 305 313 312 311 310 309 308 307 304 303